p cnf 448 1530
c ind 441 439 440 442 443 444 445 446 433 436 0
c ind 409 401 417 425 404 412 420 428 393 396 0
c ind 432 431 400 416 419 424 435 408 427 403 0
c ind 411 392 399 415 418 423 434 395 407 426 0
c ind 402 410 391 394 437 438 421 422 413 414 0
c ind 397 398 429 430 405 406 1 0
c ret 327 336 337 338 339 340 341 342 343 344 0
c ret 345 328 346 347 348 349 350 351 352 353 0
c ret 354 355 329 356 357 358 359 360 361 362 0
c ret 363 364 365 330 366 367 368 369 370 371 0
c ret 372 373 374 375 331 376 377 378 379 380 0
c ret 381 382 383 384 385 332 386 387 388 389 0
c ret 390 333 334 335 0
2 3 -185 -271 0
2 48 -185 -271 0
-2 271 0
-2 185 0
-2 -3 -48 0
3 -8 -17 -404 0
3 4 -8 -17 0
-3 17 0
-3 8 0
-3 -4 404 0
4 -5 396 0
4 5 -396 0
-4 -5 -396 0
-4 5 396 0
5 -6 -395 0
-5 395 0
-5 6 0
6 -7 -394 0
-6 394 0
-6 7 0
7 397 -398 0
7 -397 398 0
-7 -397 -398 0
-7 397 398 0
8 9 -417 0
8 -13 425 0
8 9 -13 0
8 -417 425 0
-8 -9 -425 0
-8 13 417 0
9 -10 -417 0
9 10 417 0
-9 -10 417 0
-9 10 -417 0
10 -11 -416 0
-10 416 0
-10 11 0
11 12 -415 0
-11 415 0
-11 -12 0
12 421 -422 0
12 -421 422 0
-12 -421 -422 0
-12 421 422 0
13 -14 -409 0
13 14 409 0
-13 -14 409 0
-13 14 -409 0
14 -15 -408 0
-14 408 0
-14 15 0
15 16 -407 0
-15 407 0
-15 -16 0
16 413 -414 0
16 -413 414 0
-16 -413 -414 0
-16 413 414 0
17 -18 -22 -23 409 0
17 18 -22 -23 -409 0
-17 23 0
-17 18 409 0
-17 22 0
-17 -18 -409 0
18 -19 -401 0
18 19 401 0
-18 -19 401 0
-18 19 -401 0
19 -20 -400 0
-19 400 0
-19 20 0
20 21 -399 0
-20 399 0
-20 -21 0
21 405 -406 0
21 -405 406 0
-21 -405 -406 0
-21 405 406 0
13 22 -425 0
-9 22 417 0
22 417 -425 0
-9 13 22 0
-13 -22 -417 0
9 -22 425 0
23 -24 -44 404 0
-4 23 -24 -44 0
-23 44 0
-23 24 0
4 -23 -404 0
24 -25 -35 -41 0
-24 25 0
-24 35 0
-24 41 0
25 26 28 -31 32 0
25 26 -28 31 32 0
-25 -32 0
-25 -28 -31 0
-25 -26 0
-25 28 31 0
26 -27 -399 0
-26 399 0
-26 27 0
-7 27 391 0
7 27 -391 0
-7 -27 -391 0
7 -27 391 0
28 -29 -432 0
-28 432 0
-28 29 0
29 30 -431 0
-29 431 0
-29 -30 0
30 437 -438 0
30 -437 438 0
-30 -437 -438 0
-30 437 438 0
31 -433 -441 0
31 433 441 0
-31 433 -441 0
-31 -433 441 0
32 -33 407 0
-32 -407 0
-32 33 0
33 34 -399 0
21 33 34 0
-33 -34 0
-21 -33 399 0
34 400 -408 0
34 -400 408 0
-34 -400 -408 0
-34 400 408 0
35 431 439 0
35 -36 -39 0
35 -39 431 0
35 -36 439 0
-35 36 -431 0
-35 39 -439 0
36 37 38 0
36 37 -423 0
-36 -37 0
-36 -38 423 0
37 424 -432 0
37 -424 432 0
-37 -424 -432 0
-37 424 432 0
38 429 -430 0
38 -429 430 0
-38 -429 -430 0
-38 429 430 0
39 40 -431 0
30 39 40 0
-39 -40 0
-30 -39 431 0
40 432 -440 0
40 -432 440 0
-40 -432 -440 0
-40 432 440 0
41 -42 -399 0
-27 41 423 0
41 -399 423 0
-27 41 -42 0
27 -41 399 0
-41 42 -423 0
42 43 -415 0
12 42 43 0
-42 -43 0
-12 -42 415 0
43 416 -424 0
43 -416 424 0
-43 -416 -424 0
-43 416 424 0
44 -45 46 415 0
44 -45 -46 -415 0
-44 45 0
-44 46 -415 0
-44 -46 415 0
20 34 36 45 0
-20 -34 36 45 0
20 34 45 -431 0
-20 -34 45 -431 0
-20 34 -45 0
20 -34 -45 0
-36 -45 431 0
46 47 -407 0
16 46 47 0
-46 -47 0
-16 -46 407 0
47 408 -416 0
47 -408 416 0
-47 -408 -416 0
-47 408 416 0
48 -49 -58 -65 -127 0
-48 127 0
-48 49 0
-48 65 0
-48 58 0
49 50 -53 55 428 0
49 50 53 55 -428 0
-49 -50 0
-49 -53 -428 0
-49 -55 0
-49 53 428 0
50 51 444 0
-50 -444 0
-50 -51 0
51 -52 -436 0
51 52 436 0
-51 -52 436 0
-51 52 -436 0
-30 52 -434 -435 0
-52 434 0
-52 435 0
30 -52 0
53 -54 -420 0
53 54 420 0
-53 -54 420 0
-53 54 -420 0
-12 54 -418 -419 0
-54 418 0
-54 419 0
12 -54 0
55 -56 -420 0
-55 420 0
-55 56 0
56 -57 -412 0
56 57 412 0
-56 -57 412 0
-56 57 -412 0
-16 57 -410 -411 0
-57 410 0
-57 411 0
16 -57 0
58 59 61 62 403 0
58 59 -61 62 -403 0
-58 -59 0
-58 61 -403 0
-58 -62 0
-58 -61 403 0
59 60 -400 0
-59 400 0
-59 -60 0
60 391 -392 0
-7 60 -392 0
7 60 -391 392 0
-7 -60 392 0
-60 391 392 0
7 -60 -391 -392 0
-6 61 395 0
6 61 -395 0
-6 -61 -395 0
6 -61 395 0
62 -63 -436 0
-62 436 0
-62 63 0
63 -64 -428 0
63 64 428 0
-63 -64 428 0
-63 64 -428 0
-38 64 -426 -427 0
-64 426 0
-64 427 0
38 -64 0
65 -66 69 433 0
65 66 69 -433 0
-65 -69 0
-65 66 433 0
-65 -66 -433 0
66 -67 -425 0
66 67 425 0
-66 -67 425 0
-66 67 -425 0
67 -68 -424 0
-67 424 0
-67 68 0
38 68 -423 0
-68 423 0
-38 -68 0
69 70 -77 -96 0
69 73 -77 -96 0
-69 96 0
-69 77 0
-69 -70 -73 0
70 -71 -72 385 409 0
70 -71 -72 -385 -409 0
-70 72 0
-70 -385 409 0
-70 71 0
-70 385 -409 0
71 -388 408 0
71 -384 412 0
71 -384 -388 0
71 408 412 0
-71 388 -412 0
-71 384 -408 0
72 -387 389 -411 413 0
72 387 -389 411 -413 0
72 387 389 411 413 0
72 -387 -389 -411 -413 0
-72 -387 411 0
-72 387 -411 0
-72 389 -413 0
-72 -389 413 0
73 -74 -75 383 407 0
73 -74 -75 -383 -407 0
-73 75 0
-73 -383 407 0
-73 74 0
-73 383 -407 0
74 -386 -408 0
74 384 410 0
74 384 -386 0
74 -408 410 0
-74 -384 408 0
-74 386 -410 0
75 -76 -390 -414 0
75 -76 390 414 0
-75 76 0
-75 -390 414 0
-75 390 -414 0
76 386 388 0
76 -410 -412 0
76 386 -412 0
76 388 -410 0
-76 -386 410 0
-76 -388 412 0
77 81 85 0
77 83 85 0
77 78 85 0
-77 -85 0
-77 -78 -81 -83 0
78 -79 -80 386 442 0
78 -79 -80 -386 -442 0
-78 80 0
-78 -386 442 0
-78 79 0
-78 386 -442 0
79 -387 441 0
79 -385 443 0
79 -385 -387 0
79 441 443 0
-79 387 -443 0
-79 385 -441 0
80 -384 388 -440 444 0
80 384 -388 440 -444 0
80 384 388 440 444 0
80 -384 -388 -440 -444 0
-80 -384 440 0
-80 384 -440 0
-80 388 -444 0
-80 -388 444 0
81 -82 -389 -445 0
81 -82 389 445 0
-81 82 0
-81 -389 445 0
-81 389 -445 0
82 -390 -441 0
82 385 446 0
82 385 -390 0
82 -441 446 0
-82 -385 441 0
-82 390 -446 0
83 -84 -383 -439 0
83 -84 383 439 0
-83 84 0
-83 -383 439 0
-83 383 -439 0
84 387 390 0
84 -443 -446 0
84 387 -446 0
84 390 -443 0
-84 -387 443 0
-84 -390 446 0
85 -86 -89 -90 -93 0
-85 93 0
-85 86 0
-85 90 0
-85 89 0
86 87 88 385 393 0
86 87 88 -385 -393 0
-86 -87 0
-86 -385 393 0
-86 -88 0
-86 385 -393 0
87 384 -392 0
-87 -384 0
-87 392 0
88 -390 398 0
-88 390 0
-88 -398 0
89 -387 389 -395 397 0
89 387 -389 395 -397 0
89 387 389 395 397 0
89 -387 -389 -395 -397 0
-89 -387 395 0
-89 387 -395 0
-89 389 -397 0
-89 -389 397 0
90 91 92 386 394 0
90 91 92 -386 -394 0
-90 -91 0
-90 -386 394 0
-90 -92 0
-90 386 -394 0
91 -388 396 0
-91 388 0
-91 -396 0
92 -384 392 0
-92 384 0
-92 -392 0
93 94 95 383 391 0
93 94 95 -383 -391 0
-93 -94 0
-93 -383 391 0
-93 -95 0
-93 383 -391 0
94 390 -398 0
-94 -390 0
-94 398 0
95 388 -396 0
-95 -388 0
-95 396 0
96 -97 112 123 0
96 -97 112 120 0
-96 97 0
-96 -112 0
-96 -120 -123 0
97 101 105 0
97 98 108 0
97 101 108 0
97 98 105 0
-97 -98 -101 0
-97 -105 -108 0
98 -99 -100 385 425 0
98 -99 -100 -385 -425 0
-98 100 0
-98 -385 425 0
-98 99 0
-98 385 -425 0
99 -388 424 0
99 -384 428 0
99 -384 -388 0
99 424 428 0
-99 388 -428 0
-99 384 -424 0
100 -387 389 -427 429 0
100 387 -389 427 -429 0
100 387 389 427 429 0
100 -387 -389 -427 -429 0
-100 -387 427 0
-100 387 -427 0
-100 389 -429 0
-100 -389 429 0
101 -102 -104 390 430 0
101 -102 -104 -390 -430 0
-101 104 0
-101 -390 430 0
-101 102 0
-101 390 -430 0
102 -103 -383 -423 0
102 -103 383 423 0
-102 103 0
-102 -383 423 0
-102 383 -423 0
103 -386 -424 0
103 384 426 0
103 384 -386 0
103 -424 426 0
-103 -384 424 0
-103 386 -426 0
104 386 388 0
104 -426 -428 0
104 386 -428 0
104 388 -426 0
-104 -386 426 0
-104 -388 428 0
105 -106 -107 386 434 0
105 -106 -107 -386 -434 0
-105 107 0
-105 -386 434 0
-105 106 0
-105 386 -434 0
106 -387 433 0
106 -385 435 0
106 -385 -387 0
106 433 435 0
-106 387 -435 0
-106 385 -433 0
107 -384 388 -432 436 0
107 384 -388 432 -436 0
107 384 388 432 436 0
107 -384 -388 -432 -436 0
-107 -384 432 0
-107 384 -432 0
-107 388 -436 0
-107 -388 436 0
108 -109 -110 389 437 0
108 -109 -110 -389 -437 0
-108 110 0
-108 -389 437 0
-108 109 0
-108 389 -437 0
109 -390 -433 0
109 385 438 0
109 385 -390 0
109 -433 438 0
-109 -385 433 0
-109 390 -438 0
110 -111 -383 -431 0
110 -111 383 431 0
-110 111 0
-110 -383 431 0
-110 383 -431 0
111 387 390 0
111 -435 -438 0
111 387 -438 0
111 390 -435 0
-111 -387 435 0
-111 -390 438 0
112 -113 -116 -118 -119 0
-112 119 0
-112 113 0
-112 118 0
-112 116 0
113 -114 -115 386 418 0
113 -114 -115 -386 -418 0
-113 115 0
-113 -386 418 0
-113 114 0
-113 386 -418 0
114 -387 417 0
114 -385 419 0
114 -385 -387 0
114 417 419 0
-114 387 -419 0
-114 385 -417 0
115 -384 388 -416 420 0
115 384 -388 416 -420 0
115 384 388 416 420 0
115 -384 -388 -416 -420 0
-115 -384 416 0
-115 384 -416 0
-115 388 -420 0
-115 -388 420 0
116 -117 -389 -421 0
116 -117 389 421 0
-116 117 0
-116 -389 421 0
-116 389 -421 0
117 -390 -417 0
117 385 422 0
117 385 -390 0
117 -417 422 0
-117 -385 417 0
-117 390 -422 0
118 387 390 0
118 -419 -422 0
118 387 -422 0
118 390 -419 0
-118 -387 419 0
-118 -390 422 0
119 -383 -415 0
119 383 415 0
-119 383 -415 0
-119 -383 415 0
120 -121 -122 385 401 0
120 -121 -122 -385 -401 0
-120 122 0
-120 -385 401 0
-120 121 0
-120 385 -401 0
121 -388 400 0
121 -384 404 0
121 -384 -388 0
121 400 404 0
-121 388 -404 0
-121 384 -400 0
122 -387 389 -403 405 0
122 387 -389 403 -405 0
122 387 389 403 405 0
122 -387 -389 -403 -405 0
-122 -387 403 0
-122 387 -403 0
-122 389 -405 0
-122 -389 405 0
123 -124 -126 390 406 0
123 -124 -126 -390 -406 0
-123 126 0
-123 -390 406 0
-123 124 0
-123 390 -406 0
124 -125 -383 -399 0
124 -125 383 399 0
-124 125 0
-124 -383 399 0
-124 383 -399 0
125 -386 -400 0
125 384 402 0
125 384 -386 0
125 -400 402 0
-125 -384 400 0
-125 386 -402 0
126 386 388 0
126 -402 -404 0
126 386 -404 0
126 388 -402 0
-126 -386 402 0
-126 -388 404 0
127 -128 -175 -176 -179 0
-127 179 0
-127 128 0
-127 176 0
-127 175 0
128 -129 -163 -166 -173 0
-128 173 0
-128 129 0
-128 166 0
-128 163 0
129 -130 -152 -154 -157 0
-129 157 0
-129 130 0
-129 154 0
-129 152 0
37 68 130 -131 -134 0
-37 -68 130 -131 -134 0
-130 134 0
-37 68 -130 0
-130 131 0
37 -68 -130 0
-30 131 0
131 -132 431 0
-40 131 -132 0
30 -131 132 0
30 40 -131 -431 0
132 133 -434 0
132 133 442 0
-132 -133 0
-132 434 -442 0
133 435 -443 0
133 -435 443 0
-133 -435 -443 0
-133 435 443 0
134 -135 -140 -145 -147 0
-134 147 0
-134 135 0
-134 145 0
-134 140 0
135 -136 -137 429 438 0
135 -136 -137 -429 -438 0
-135 137 0
-135 -429 438 0
-135 136 0
-135 429 -438 0
136 -414 421 0
136 405 -430 0
136 405 421 0
136 -414 -430 0
-136 -405 414 0
-136 -421 430 0
137 -138 139 -430 0
137 -138 139 -437 0
-137 138 0
-137 -139 0
-137 430 437 0
138 -397 422 0
138 406 -413 0
138 406 422 0
138 -397 -413 0
-138 397 -406 0
-138 413 -422 0
139 398 405 0
-139 -398 0
-139 -405 0
140 -141 -143 -144 0
140 142 -143 -144 0
-140 144 0
-140 143 0
-140 141 -142 0
141 -418 426 0
-141 418 0
-141 -426 0
142 419 -427 0
142 -419 427 0
-142 -419 -427 0
-142 419 427 0
143 397 414 0
143 -406 421 0
143 -406 414 0
143 397 421 0
-143 -397 406 0
-143 -414 -421 0
144 405 406 0
144 398 413 0
144 405 413 0
144 398 406 0
-144 -398 -405 0
-144 -406 -413 0
145 -146 -421 0
145 -146 -405 430 0
-145 146 0
-145 421 -430 0
-145 405 421 0
146 422 -429 -437 -446 0
146 -422 429 -437 -446 0
146 422 -429 437 446 0
146 -422 429 437 446 0
-146 437 -446 0
-146 -437 446 0
-146 -422 -429 0
-146 422 429 0
147 -148 -149 438 -445 0
147 -148 -149 -438 445 0
-147 149 0
-147 438 445 0
-147 148 0
-147 -438 -445 0
148 -422 430 0
148 -406 437 0
148 -406 430 0
148 -422 437 0
-148 406 422 0
-148 -430 -437 0
149 -150 -151 397 398 0
-149 -397 0
-149 151 0
-149 150 0
-149 -398 0
150 391 392 0
-150 -391 0
-150 -392 0
151 393 394 395 396 0
-151 -396 0
-151 -395 0
-151 -393 0
-151 -394 0
12 47 152 0
-15 152 153 0
12 -15 152 0
47 152 153 0
-12 -152 -153 0
15 -47 -152 0
142 153 -418 0
142 153 426 0
-142 -153 0
-153 418 -426 0
16 -47 154 0
-16 154 155 0
16 154 407 0
-16 -154 -155 0
16 47 -154 -407 0
155 156 -410 0
155 156 418 0
-155 -156 0
-155 410 -418 0
156 411 -419 0
156 -411 419 0
-156 -411 -419 0
-156 411 419 0
157 -158 161 -162 0
157 -158 -161 162 0
-157 158 0
-157 -161 -162 0
-157 161 162 0
132 158 159 160 0
30 158 -159 -160 0
30 158 159 160 0
132 158 -159 -160 0
-158 159 -160 0
-158 -159 160 0
-30 -132 -158 0
159 403 -411 0
159 -403 411 0
-159 -403 -411 0
-159 403 411 0
160 -402 410 0
-160 402 0
-160 -410 0
7 161 -391 -392 0
-161 391 0
-161 392 0
-7 -161 0
162 -393 -401 0
162 393 401 0
-162 393 -401 0
-162 -393 401 0
163 -164 -165 -402 0
163 164 -165 402 0
-163 165 0
-163 164 -402 0
-163 -164 402 0
-7 164 394 0
7 164 -394 0
-7 -164 -394 0
7 -164 394 0
-33 165 -423 0
42 165 407 0
165 407 -423 0
-33 42 165 0
33 -165 -407 0
-42 -165 423 0
-156 166 -167 -169 -172 0
156 166 -167 -169 172 0
-166 167 0
156 -166 -172 0
-166 169 0
-156 -166 172 0
-133 141 167 -168 0
133 -142 167 168 0
133 141 167 168 0
-133 -142 167 -168 0
133 -167 -168 0
-133 -167 168 0
-141 142 -167 0
168 -434 442 0
-168 434 0
-168 -442 0
169 -170 -171 0
169 170 171 0
-169 170 -171 0
-169 -170 171 0
170 -426 434 0
-170 426 0
-170 -434 0
171 427 -435 0
171 -427 435 0
-171 -427 -435 0
-171 427 435 0
172 -410 418 0
-172 410 0
-172 -418 0
-21 173 174 -439 0
21 173 -174 -439 0
21 39 173 -174 0
-21 39 173 174 0
21 -173 174 0
-21 -173 -174 0
-39 -173 439 0
159 174 -402 0
159 174 410 0
-159 -174 0
-174 402 -410 0
-63 175 -400 0
60 175 -436 0
175 -400 -436 0
60 -63 175 0
63 -175 436 0
-60 -175 400 0
-56 176 -412 0
176 -177 -420 0
176 -412 -420 0
-56 176 -177 0
56 -176 420 0
-176 177 412 0
177 -178 -404 0
177 178 404 0
-177 -178 404 0
-177 178 -404 0
-21 178 -402 -403 0
-178 402 0
-178 403 0
21 -178 0
179 -180 -182 -183 -184 0
-179 184 0
-179 180 0
-179 183 0
-179 182 0
11 -38 43 180 0
-11 -43 180 -181 0
11 43 180 -181 0
-11 -38 -43 180 0
-11 43 -180 0
11 -43 -180 0
38 -180 181 0
171 181 -426 0
171 181 434 0
-171 -181 0
-181 426 -434 0
-29 181 182 0
38 40 182 0
40 181 182 0
-29 38 182 0
-38 -181 -182 0
29 -40 -182 0
-16 -153 183 0
-12 -155 183 0
-12 -16 183 0
-153 -155 183 0
16 155 -183 0
12 153 -183 0
51 177 184 0
184 412 444 0
177 184 444 0
51 184 412 0
-51 -184 -444 0
-177 -184 -412 0
185 -186 194 -196 340 0
185 -186 -194 -196 -340 0
-185 196 0
-185 194 -340 0
-185 186 0
-185 -194 340 0
186 -187 190 -339 0
186 187 190 339 0
186 -187 -339 361 0
186 187 339 361 0
-186 187 -339 0
-186 -187 339 0
-186 -190 -361 0
187 -188 331 0
187 188 -331 0
-187 -188 -331 0
-187 188 331 0
188 -189 -330 0
-188 330 0
-188 189 0
189 333 -334 0
189 -333 334 0
-189 -333 -334 0
-189 333 334 0
190 -191 -353 0
190 191 353 0
-190 -191 353 0
-190 191 -353 0
191 -192 -352 0
-191 352 0
-191 192 0
192 193 -351 0
-192 351 0
-192 -193 0
193 357 -358 0
193 -357 358 0
-193 -357 -358 0
-193 357 358 0
194 -195 332 0
194 195 -332 0
-194 -195 -332 0
-194 195 332 0
-188 195 -331 0
-195 331 0
188 -195 0
196 -197 -224 -260 -266 0
-196 266 0
-196 197 0
-196 260 0
-196 224 0
197 -198 -210 -219 -221 0
-197 221 0
-197 198 0
-197 219 0
-197 210 0
198 199 203 206 375 0
198 199 -203 206 -375 0
-198 -199 0
-198 203 -375 0
-198 -206 0
-198 -203 375 0
199 200 345 -353 0
199 200 -345 353 0
-199 -200 0
-199 345 353 0
-199 -345 -353 0
200 -201 -344 0
-200 344 0
-200 201 0
201 202 -343 0
-201 343 0
-201 -202 0
202 349 -350 0
202 -349 350 0
-202 -349 -350 0
-202 349 350 0
203 204 205 0
203 204 -367 0
-203 -204 0
-203 -205 367 0
204 368 -376 0
204 -368 376 0
-204 -368 -376 0
-204 368 376 0
205 373 -374 0
205 -373 374 0
-205 -373 -374 0
-205 373 374 0
206 -207 -208 0
206 207 208 0
-206 207 -208 0
-206 -207 208 0
207 341 -342 0
207 -341 342 0
-207 -341 -342 0
-207 341 342 0
208 209 -338 0
208 209 346 0
-208 -209 0
-208 338 -346 0
209 339 -347 0
209 -339 347 0
-209 -339 -347 0
-209 339 347 0
210 -214 215 0
210 -211 218 0
210 -211 215 0
210 -214 218 0
-210 211 214 0
-210 -215 -218 0
211 -212 -376 0
-211 376 0
-211 212 0
212 213 -375 0
-212 375 0
-212 -213 0
213 381 -382 0
213 -381 382 0
-213 -381 -382 0
-213 381 382 0
214 -377 -385 0
214 377 385 0
-214 377 -385 0
-214 -377 385 0
215 -216 -360 0
-215 360 0
-215 216 0
216 217 -359 0
-216 359 0
-216 -217 0
217 365 -366 0
217 -365 366 0
-217 -365 -366 0
-217 365 366 0
218 -361 -369 0
218 361 369 0
-218 361 -369 0
-218 -361 369 0
200 -218 219 0
-215 219 220 0
-218 219 220 0
200 -215 219 0
-200 -219 -220 0
215 218 -219 0
220 -345 -353 0
220 345 353 0
-220 345 -353 0
-220 -345 353 0
221 -222 -361 380 0
-190 221 222 -380 0
221 222 -361 -380 0
-190 221 -222 380 0
-221 222 380 0
-221 -222 -380 0
190 -221 361 0
222 -223 -372 0
222 223 372 0
-222 -223 372 0
-222 223 -372 0
-205 223 -370 -371 0
-223 370 0
-223 371 0
205 -223 0
224 -225 -232 -233 335 0
224 -225 232 -233 -335 0
-224 233 0
-224 -232 -335 0
-224 225 0
-224 232 335 0
225 -226 -228 0
225 -228 343 0
-225 228 0
-225 226 -343 0
226 227 -335 0
207 226 227 0
-226 -227 0
-207 -226 335 0
227 336 -344 0
227 -336 344 0
-227 -336 -344 0
-227 336 344 0
-209 228 229 230 -231 0
-209 228 -229 -230 -231 0
209 228 229 230 231 0
209 228 -229 -230 231 0
209 -228 -231 0
-209 -228 231 0
-228 -229 230 0
-228 229 -230 0
229 355 -363 0
229 -355 363 0
-229 -355 -363 0
-229 355 363 0
230 -354 362 0
-230 354 0
-230 -362 0
231 -338 346 0
-231 338 0
-231 -346 0
-189 232 327 0
189 232 -327 0
-189 -232 -327 0
189 -232 327 0
233 -234 -236 -241 -243 0
-233 243 0
-233 234 0
-233 241 0
-233 236 0
234 235 341 350 -357 0
234 235 -341 -350 357 0
-234 -341 -357 0
-234 350 357 0
-234 -235 0
-234 341 -350 0
235 -333 -349 0
235 -333 342 0
-235 333 0
-235 -342 349 0
236 -237 -240 381 390 0
236 -237 -240 -381 -390 0
-236 240 0
-236 -381 390 0
-236 237 0
-236 381 -390 0
237 238 239 357 366 0
237 238 239 -357 -366 0
-237 -238 0
-237 -357 366 0
-237 -239 0
-237 357 -366 0
238 358 365 0
-238 -358 0
-238 -365 0
239 333 -342 0
-239 -333 0
-239 342 0
240 329 330 331 332 0
-240 -332 0
-240 -331 0
-240 -329 0
-240 -330 0
241 242 378 -386 0
213 241 242 378 0
241 -242 -378 386 0
213 241 242 -386 0
-241 -242 378 0
-241 -242 -386 0
-241 242 -378 386 0
-213 -241 242 -378 0
-213 -241 378 386 0
242 379 -387 0
242 -379 387 0
-242 -379 -387 0
-242 379 387 0
243 -244 247 248 -249 0
243 -244 -247 -248 -249 0
-243 249 0
-243 -247 248 0
-243 244 0
-243 247 -248 0
244 245 366 -373 -382 0
244 245 -366 373 382 0
-244 -373 382 0
-244 -366 -382 0
-244 -245 0
-244 366 373 0
245 -246 -378 0
245 -246 370 0
-245 246 0
-245 -370 378 0
246 371 -379 0
246 -371 379 0
-246 -371 -379 0
-246 371 379 0
247 -362 370 0
-247 362 0
-247 -370 0
248 363 -371 0
248 -363 371 0
-248 -363 -371 0
-248 363 371 0
249 -250 -253 256 -257 0
-249 257 0
-249 250 0
-249 253 0
-249 -256 0
250 251 252 334 -341 0
250 251 252 -334 341 0
-250 -251 0
-250 334 341 0
-250 -252 0
-250 -334 -341 0
251 -365 374 0
-251 365 0
-251 -374 0
252 365 381 0
-252 -365 0
-252 -381 0
253 -254 255 -382 389 0
253 -254 255 382 -389 0
-253 -255 0
-253 382 389 0
-253 254 0
-253 -382 -389 0
254 333 334 0
-254 -333 0
-254 -334 0
255 342 358 0
-255 -342 0
-255 -358 0
246 256 -370 378 0
-256 370 0
-246 -256 0
-256 -378 0
257 -258 -259 358 0
257 -258 -259 365 0
-257 259 0
-257 258 0
-257 -358 -365 0
258 -349 381 0
258 358 374 0
258 358 381 0
258 -349 374 0
-258 349 -358 0
-258 -374 -381 0
259 327 328 0
-259 -327 0
-259 -328 0
217 260 -261 -264 265 0
-217 260 -261 264 265 0
-260 -265 0
-217 -260 -264 0
-260 261 0
217 -260 264 0
-205 261 263 -338 0
205 261 -263 -338 0
205 261 262 -263 0
-205 261 262 263 0
205 -261 263 0
-205 -261 -263 0
-261 -262 338 0
-189 262 330 0
189 262 -330 0
-189 -262 -330 0
189 -262 330 0
246 263 -370 0
246 263 378 0
-246 -263 0
-263 370 -378 0
248 264 -362 0
248 264 370 0
-248 -264 0
-264 362 -370 0
-211 265 -377 -385 0
-211 265 377 385 0
211 -265 0
-265 -377 385 0
-265 377 -385 0
266 267 268 270 351 0
266 267 -268 270 -351 0
-266 -267 0
-266 268 -351 0
-266 -270 0
-266 -268 351 0
-226 267 343 0
-267 -343 0
226 -267 0
268 269 -343 0
202 268 269 0
-268 -269 0
-202 -268 343 0
269 344 -352 0
269 -344 352 0
-269 -344 -352 0
-269 344 352 0
262 270 -338 0
-270 338 0
-262 -270 0
271 -272 -275 -287 377 0
271 272 -275 -287 -377 0
-271 287 0
-271 272 377 0
-271 275 0
-271 -272 -377 0
272 -273 -369 0
272 273 369 0
-272 -273 369 0
-272 273 -369 0
273 -274 -368 0
-273 368 0
-273 274 0
205 274 -367 0
-274 367 0
-205 -274 0
275 276 -282 388 0
275 276 280 -282 0
-275 282 0
-275 -276 0
-275 -280 -388 0
276 -277 -345 0
276 277 345 0
-276 -277 345 0
-276 277 -345 0
277 -278 -337 0
277 278 337 0
-277 -278 337 0
-277 278 -337 0
278 -279 -336 0
-278 336 0
-278 279 0
207 279 -335 0
-279 335 0
-207 -279 0
280 -281 -380 0
280 281 380 0
-280 -281 380 0
-280 281 -380 0
-213 281 -378 -379 0
-281 378 0
-281 379 0
213 -281 0
282 283 -364 0
282 -285 348 0
282 348 -364 0
282 283 -285 0
-282 285 364 0
-282 -283 -348 0
283 -284 -340 0
283 284 340 0
-283 -284 340 0
-283 284 -340 0
-207 284 -338 -339 0
-284 338 0
-284 339 0
207 -284 0
285 -286 -356 0
285 286 356 0
-285 -286 356 0
-285 286 -356 0
-193 286 -354 -355 0
-286 354 0
-286 355 0
193 -286 0
287 -288 -301 -310 -316 0
-287 316 0
-287 288 0
-287 310 0
-287 301 0
288 289 -291 -297 367 0
288 -289 -291 -297 -367 0
-288 297 0
-288 289 -367 0
-288 291 0
-288 -289 367 0
289 290 -359 0
217 289 290 0
-289 -290 0
-217 -289 359 0
290 360 -368 0
290 -360 368 0
-290 -360 -368 0
-290 360 368 0
227 279 291 292 294 0
-227 -279 291 292 294 0
-291 -292 0
-227 279 -291 0
-291 -294 0
227 -279 -291 0
292 293 329 -337 0
292 293 -329 337 0
-292 -293 0
-292 329 337 0
-292 -329 -337 0
189 293 -327 -328 0
-293 327 0
-293 328 0
-189 -293 0
294 295 -296 0
294 -295 296 0
-294 -295 -296 0
-294 295 296 0
295 347 -355 0
295 -347 355 0
-295 -347 -355 0
-295 347 355 0
296 -346 354 0
-296 346 0
-296 -354 0
297 298 -299 -388 0
-280 297 -298 299 0
297 -298 299 -388 0
-280 297 298 -299 0
-297 298 299 0
-297 -298 -299 0
280 -297 388 0
-189 298 -327 0
-298 327 0
189 -298 0
299 -300 -336 0
299 300 336 0
-299 -300 336 0
-299 300 -336 0
300 327 -328 0
300 -327 328 0
-300 -327 -328 0
-300 327 328 0
202 301 -302 -305 -306 0
-202 301 -302 305 -306 0
-301 306 0
-202 -301 -305 0
-301 302 0
202 -301 305 0
-192 212 302 0
302 -303 304 0
212 302 304 0
-192 302 -303 0
-212 -302 303 0
192 -302 -304 0
303 376 -384 0
303 -376 384 0
-303 -376 -384 0
-303 376 384 0
304 352 -360 0
304 -352 360 0
-304 -352 -360 0
-304 352 360 0
295 305 -346 0
295 305 354 0
-295 -305 0
-305 346 -354 0
201 269 306 307 309 0
-201 -269 306 307 309 0
-306 -307 0
-201 269 -306 0
-306 -309 0
201 -269 -306 0
213 307 308 0
-213 -307 0
-307 -308 0
242 308 -378 0
242 308 386 0
-242 -308 0
-308 378 -386 0
216 -290 309 0
-216 -309 0
290 -309 0
193 310 -311 -314 -315 0
-193 310 -311 -314 315 0
-310 311 0
-193 -310 -315 0
-310 314 0
193 -310 315 0
-274 311 -312 313 0
204 311 -312 313 0
-311 312 0
-311 -313 0
-204 274 -311 0
-212 216 312 0
-290 303 312 0
216 303 312 0
-212 -290 312 0
-216 290 -312 0
212 -303 -312 0
-293 313 -329 -337 0
-293 313 329 337 0
293 -313 0
-313 -329 337 0
-313 329 -337 0
192 274 314 0
-204 -304 314 0
192 -204 314 0
274 -304 314 0
-192 304 -314 0
204 -274 -314 0
229 315 -354 0
229 315 362 0
-229 -315 0
-315 354 -362 0
316 -317 -320 -323 -325 0
-316 325 0
-316 317 0
-316 323 0
-316 320 0
285 317 -372 0
317 -318 364 0
317 364 -372 0
285 317 -318 0
-317 318 372 0
-285 -317 -364 0
318 -319 -364 0
318 319 364 0
-318 -319 364 0
-318 319 -364 0
-217 319 -362 -363 0
-319 362 0
-319 363 0
217 -319 0
320 -348 356 0
-283 320 321 0
320 321 -348 0
-283 320 356 0
283 -320 348 0
-320 -321 -356 0
321 -322 -348 0
321 322 348 0
-321 -322 348 0
-321 322 -348 0
-202 322 -346 -347 0
-322 346 0
-322 347 0
202 -322 0
323 324 372 383 0
318 323 -324 -383 0
323 -324 372 -383 0
318 323 324 383 0
-323 -324 383 0
-323 324 -383 0
-318 -323 -372 0
303 324 -375 0
213 303 324 0
-303 -324 0
-213 -324 375 0
325 326 -356 359 0
-321 325 -326 -359 0
325 -326 -356 -359 0
-321 325 326 359 0
-325 -326 359 0
-325 326 -359 0
321 -325 356 0
304 326 -351 0
193 304 326 0
-304 -326 0
-193 -326 351 0
1 2 0
-1 -2 0
447 0

